100
128
8
14
25
43
12
1
56
4
5
62
37
35
63
7
49
31
27
10
43
16
14
23
13
22
31
32
26
55
38
42
10
30
54
61
25
44
60
31
33
12
16
35
53
49
33
26
12
63
3
41
17
17
24
15
24
13
9
18
33
16
48
27
41
22
44
54
41
15
33
53
22
49
14
16
36
29
32
20
14
19
13
17
2
17
22
48
31
27
18
58
17
21
49
30
19
60
17
22
58
31